c User generated cnf file
p cnf 6 21
6 -2 2 0 
4 5 -6 0 
5 3 -4 0 
4 -1 4 0 
2 -5 6 0 
5 3 -6 0 
6 -3 4 0 
4 -6 2 0 
6 1 -6 0 
5 6 -2 0 
2 -6 3 0 
2 -3 6 0 
3 -2 4 0 
4 -2 4 0 
6 3 -2 0 
2 -5 1 0 
6 4 -6 0 
4 -5 5 0 
3 1 -5 0 
6 -3 4 0 
2 2 -5 0 
